(set-info :smt-lib-version 2.6)
(set-logic UF)
(set-info :source |Benchmarks from the paper: "Extending Sledgehammer with SMT Solvers" by Jasmin Blanchette, Sascha Bohme, and Lawrence C. Paulson, CADE 2011.  Translated to SMT2 by Andrew Reynolds and Morgan Deters.|)
(set-info :category "industrial")
(set-info :status unknown)
(declare-sort S1 0)
(declare-sort S2 0)
(declare-sort S3 0)
(declare-sort S4 0)
(declare-sort S5 0)
(declare-sort S6 0)
(declare-sort S7 0)
(declare-sort S8 0)
(declare-sort S9 0)
(declare-sort S10 0)
(declare-sort S11 0)
(declare-sort S12 0)
(declare-sort S13 0)
(declare-sort S14 0)
(declare-sort S15 0)
(declare-sort S16 0)
(declare-sort S17 0)
(declare-sort S18 0)
(declare-sort S19 0)
(declare-sort S20 0)
(declare-sort S21 0)
(declare-sort S22 0)
(declare-sort S23 0)
(declare-sort S24 0)
(declare-sort S25 0)
(declare-sort S26 0)
(declare-sort S27 0)
(declare-sort S28 0)
(declare-sort S29 0)
(declare-sort S30 0)
(declare-sort S31 0)
(declare-sort S32 0)
(declare-sort S33 0)
(declare-sort S34 0)
(declare-sort S35 0)
(declare-sort S36 0)
(declare-sort S37 0)
(declare-sort S38 0)
(declare-sort S39 0)
(declare-sort S40 0)
(declare-sort S41 0)
(declare-sort S42 0)
(declare-sort S43 0)
(declare-sort S44 0)
(declare-sort S45 0)
(declare-sort S46 0)
(declare-sort S47 0)
(declare-sort S48 0)
(declare-sort S49 0)
(declare-sort S50 0)
(declare-sort S51 0)
(declare-sort S52 0)
(declare-sort S53 0)
(declare-sort S54 0)
(declare-sort S55 0)
(declare-sort S56 0)
(declare-sort S57 0)
(declare-sort S58 0)
(declare-sort S59 0)
(declare-sort S60 0)
(declare-sort S61 0)
(declare-sort S62 0)
(declare-sort S63 0)
(declare-sort S64 0)
(declare-sort S65 0)
(declare-sort S66 0)
(declare-sort S67 0)
(declare-sort S68 0)
(declare-sort S69 0)
(declare-sort S70 0)
(declare-sort S71 0)
(declare-sort S72 0)
(declare-sort S73 0)
(declare-sort S74 0)
(declare-sort S75 0)
(declare-sort S76 0)
(declare-sort S77 0)
(declare-sort S78 0)
(declare-sort S79 0)
(declare-sort S80 0)
(declare-sort S81 0)
(declare-sort S82 0)
(declare-sort S83 0)
(declare-sort S84 0)
(declare-sort S85 0)
(declare-sort S86 0)
(declare-sort S87 0)
(declare-sort S88 0)
(declare-sort S89 0)
(declare-sort S90 0)
(declare-sort S91 0)
(declare-sort S92 0)
(declare-sort S93 0)
(declare-sort S94 0)
(declare-sort S95 0)
(declare-sort S96 0)
(declare-sort S97 0)
(declare-sort S98 0)
(declare-sort S99 0)
(declare-fun f1 () S1)
(declare-fun f2 () S1)
(declare-fun f3 (S2 S4) S1)
(declare-fun f4 (S5 S3) S2)
(declare-fun f5 (S2) S5)
(declare-fun f6 (S4 S2) S1)
(declare-fun f7 (S3) S2)
(declare-fun f8 (S6 S8) S1)
(declare-fun f9 (S9 S7) S6)
(declare-fun f10 (S6) S9)
(declare-fun f11 (S8 S6) S1)
(declare-fun f12 (S7) S6)
(declare-fun f13 (S10 S12) S1)
(declare-fun f14 (S13 S11) S10)
(declare-fun f15 (S10) S13)
(declare-fun f16 (S12 S10) S1)
(declare-fun f17 (S11) S10)
(declare-fun f18 (S14 S11) S1)
(declare-fun f19 (S16 S15) S14)
(declare-fun f20 (S14) S16)
(declare-fun f21 (S11 S14) S1)
(declare-fun f22 (S15) S14)
(declare-fun f23 (S17 S19) S1)
(declare-fun f24 (S20 S18) S17)
(declare-fun f25 (S17) S20)
(declare-fun f26 (S19 S17) S1)
(declare-fun f27 (S18) S17)
(declare-fun f28 (S21 S2) S2)
(declare-fun f29 (S2) S21)
(declare-fun f30 (S22 S6) S6)
(declare-fun f31 (S6) S22)
(declare-fun f32 (S23 S10) S10)
(declare-fun f33 (S10) S23)
(declare-fun f34 (S24 S14) S14)
(declare-fun f35 (S14) S24)
(declare-fun f36 (S25 S17) S17)
(declare-fun f37 (S17) S25)
(declare-fun f38 (S26 S18) S1)
(declare-fun f39 (S27 S19) S26)
(declare-fun f40 (S28 S19) S27)
(declare-fun f41 () S28)
(declare-fun f42 (S29 S18) S19)
(declare-fun f43 (S30 S19) S29)
(declare-fun f44 () S30)
(declare-fun f45 () S27)
(declare-fun f46 (S31 S8) S8)
(declare-fun f47 () S31)
(declare-fun f48 () S19)
(declare-fun f49 (S32 S7) S18)
(declare-fun f50 (S33 S34) S32)
(declare-fun f51 () S33)
(declare-fun f52 () S34)
(declare-fun f53 () S7)
(declare-fun f54 (S19) S17)
(declare-fun f55 () S19)
(declare-fun f56 () S19)
(declare-fun f57 (S19) S17)
(declare-fun f58 (S35 S19) S19)
(declare-fun f59 (S36 S19) S35)
(declare-fun f60 () S36)
(declare-fun f61 () S29)
(declare-fun f62 () S34)
(declare-fun f63 (S37 S7) S7)
(declare-fun f64 (S38 S6) S37)
(declare-fun f65 () S38)
(declare-fun f66 (S39 S28) S6)
(declare-fun f67 (S40 S28) S39)
(declare-fun f68 (S27) S40)
(declare-fun f69 (S41 S31) S37)
(declare-fun f70 () S41)
(declare-fun f71 (S42 S19) S31)
(declare-fun f72 () S42)
(declare-fun f73 (S43 S18) S8)
(declare-fun f74 (S44 S19) S43)
(declare-fun f75 (S45 S19) S44)
(declare-fun f76 () S45)
(declare-fun f77 () S19)
(declare-fun f78 () S19)
(declare-fun f79 (S46 S18) S18)
(declare-fun f80 (S47 S19) S46)
(declare-fun f81 () S47)
(declare-fun f82 () S18)
(declare-fun f83 () S8)
(declare-fun f84 () S18)
(declare-fun f85 (S34 S8) S19)
(declare-fun f86 (S48 S7) S3)
(declare-fun f87 () S48)
(declare-fun f88 (S49 S8) S37)
(declare-fun f89 () S49)
(declare-fun f90 () S45)
(declare-fun f91 () S19)
(declare-fun f92 () S18)
(declare-fun f93 () S3)
(declare-fun f94 () S37)
(declare-fun f95 () S7)
(declare-fun f96 (S50 S17) S46)
(declare-fun f97 () S50)
(declare-fun f98 (S51 S15) S15)
(declare-fun f99 (S52 S14) S51)
(declare-fun f100 () S52)
(declare-fun f101 () S15)
(declare-fun f102 (S53 S11) S11)
(declare-fun f103 (S54 S10) S53)
(declare-fun f104 () S54)
(declare-fun f105 () S11)
(declare-fun f106 (S55 S3) S3)
(declare-fun f107 (S56 S2) S55)
(declare-fun f108 () S56)
(declare-fun f109 (S57 S12) S53)
(declare-fun f110 () S57)
(declare-fun f111 (S58 S11) S51)
(declare-fun f112 () S58)
(declare-fun f113 (S59 S4) S55)
(declare-fun f114 () S59)
(declare-fun f115 (S61 S3) S11)
(declare-fun f116 (S62 S60) S61)
(declare-fun f117 () S62)
(declare-fun f118 (S60 S4) S12)
(declare-fun f119 (S64 S3) S15)
(declare-fun f120 (S65 S63) S64)
(declare-fun f121 () S65)
(declare-fun f122 (S63 S4) S11)
(declare-fun f123 (S67 S3) S7)
(declare-fun f124 (S68 S66) S67)
(declare-fun f125 () S68)
(declare-fun f126 (S66 S4) S8)
(declare-fun f127 (S70 S3) S18)
(declare-fun f128 (S71 S69) S70)
(declare-fun f129 () S71)
(declare-fun f130 (S69 S4) S19)
(declare-fun f131 (S73 S11) S3)
(declare-fun f132 (S74 S72) S73)
(declare-fun f133 () S74)
(declare-fun f134 (S72 S12) S4)
(declare-fun f135 (S76 S15) S3)
(declare-fun f136 (S77 S75) S76)
(declare-fun f137 () S77)
(declare-fun f138 (S75 S11) S4)
(declare-fun f139 (S79 S78) S48)
(declare-fun f140 () S79)
(declare-fun f141 (S78 S8) S4)
(declare-fun f142 (S81 S18) S3)
(declare-fun f143 (S82 S80) S81)
(declare-fun f144 () S82)
(declare-fun f145 (S80 S19) S4)
(declare-fun f146 (S84 S7) S11)
(declare-fun f147 (S85 S83) S84)
(declare-fun f148 () S85)
(declare-fun f149 (S83 S8) S12)
(declare-fun f150 (S87 S7) S15)
(declare-fun f151 (S88 S86) S87)
(declare-fun f152 () S88)
(declare-fun f153 (S86 S8) S11)
(declare-fun f154 (S90 S18) S7)
(declare-fun f155 (S91 S89) S90)
(declare-fun f156 () S91)
(declare-fun f157 (S89 S19) S8)
(declare-fun f158 (S93 S11) S7)
(declare-fun f159 (S94 S92) S93)
(declare-fun f160 () S94)
(declare-fun f161 (S92 S12) S8)
(declare-fun f162 (S96 S15) S7)
(declare-fun f163 (S97 S95) S96)
(declare-fun f164 () S97)
(declare-fun f165 (S95 S11) S8)
(declare-fun f166 (S6) S6)
(declare-fun f167 (S17) S17)
(declare-fun f168 (S2) S2)
(declare-fun f169 (S14) S14)
(declare-fun f170 (S10) S10)
(declare-fun f171 (S98 S30) S29)
(declare-fun f172 (S99 S19) S98)
(declare-fun f173 () S99)
(declare-fun f174 (S6 S6) S1)
(declare-fun f175 (S17 S17) S1)
(declare-fun f176 (S10 S10) S1)
(declare-fun f177 (S14 S14) S1)
(declare-fun f178 (S2 S2) S1)
(assert (not (= f1 f2)))
(assert (forall ((?v0 S2) (?v1 S3) (?v2 S4)) (= (= (f3 (f4 (f5 ?v0) ?v1) ?v2) f1) (and (= (f6 ?v2 (f7 ?v1)) f1) (= (f3 ?v0 ?v2) f1)))))
(assert (forall ((?v0 S6) (?v1 S7) (?v2 S8)) (= (= (f8 (f9 (f10 ?v0) ?v1) ?v2) f1) (and (= (f11 ?v2 (f12 ?v1)) f1) (= (f8 ?v0 ?v2) f1)))))
(assert (forall ((?v0 S10) (?v1 S11) (?v2 S12)) (= (= (f13 (f14 (f15 ?v0) ?v1) ?v2) f1) (and (= (f16 ?v2 (f17 ?v1)) f1) (= (f13 ?v0 ?v2) f1)))))
(assert (forall ((?v0 S14) (?v1 S15) (?v2 S11)) (= (= (f18 (f19 (f20 ?v0) ?v1) ?v2) f1) (and (= (f21 ?v2 (f22 ?v1)) f1) (= (f18 ?v0 ?v2) f1)))))
(assert (forall ((?v0 S17) (?v1 S18) (?v2 S19)) (= (= (f23 (f24 (f25 ?v0) ?v1) ?v2) f1) (and (= (f26 ?v2 (f27 ?v1)) f1) (= (f23 ?v0 ?v2) f1)))))
(assert (forall ((?v0 S2) (?v1 S2) (?v2 S4)) (= (= (f3 (f28 (f29 ?v0) ?v1) ?v2) f1) (and (= (f3 ?v1 ?v2) f1) (= (f3 ?v0 ?v2) f1)))))
(assert (forall ((?v0 S6) (?v1 S6) (?v2 S8)) (= (= (f8 (f30 (f31 ?v0) ?v1) ?v2) f1) (and (= (f8 ?v1 ?v2) f1) (= (f8 ?v0 ?v2) f1)))))
(assert (forall ((?v0 S10) (?v1 S10) (?v2 S12)) (= (= (f13 (f32 (f33 ?v0) ?v1) ?v2) f1) (and (= (f13 ?v1 ?v2) f1) (= (f13 ?v0 ?v2) f1)))))
(assert (forall ((?v0 S14) (?v1 S14) (?v2 S11)) (= (= (f18 (f34 (f35 ?v0) ?v1) ?v2) f1) (and (= (f18 ?v1 ?v2) f1) (= (f18 ?v0 ?v2) f1)))))
(assert (forall ((?v0 S17) (?v1 S17) (?v2 S19)) (= (= (f23 (f36 (f37 ?v0) ?v1) ?v2) f1) (and (= (f23 ?v1 ?v2) f1) (= (f23 ?v0 ?v2) f1)))))
(assert (forall ((?v0 S19) (?v1 S19) (?v2 S18)) (= (= (f38 (f39 (f40 f41 ?v0) ?v1) ?v2) f1) true)))
(assert (forall ((?v0 S19) (?v1 S18)) (= (f42 (f43 f44 ?v0) ?v1) ?v0)))
(assert (forall ((?v0 S19) (?v1 S18)) (= (= (f38 (f39 f45 ?v0) ?v1) f1) false)))
(assert (forall ((?v0 S8)) (= (f46 f47 ?v0) ?v0)))
(assert (not (= (f26 f48 (f27 (f49 (f50 f51 f52) f53))) f1)))
(assert (= (f23 (f54 f55) f56) f1))
(assert (let ((?v_0 (f42 f61 (f49 (f50 f51 f52) f53)))) (= (f23 (f57 f56) (f58 (f59 f60 ?v_0) (f42 f61 (f49 (f50 f51 f62) (f63 (f64 f65 (f66 (f67 (f68 f45) f41) f41)) (f63 (f69 f70 (f71 f72 ?v_0)) f53)))))) f1)))
(assert (= (f11 (f73 (f74 (f75 f76 f77) f78) (f79 (f80 f81 f48) f82)) (f12 f53)) f1))
(assert (= f83 (f73 (f74 (f75 f76 f77) f78) (f79 (f80 f81 f48) f82))))
(assert (= f84 (f79 (f80 f81 f48) f82)))
(assert (forall ((?v0 S8)) (=> (= (f11 ?v0 (f12 f53)) f1) (and (not (= (f85 f52 ?v0) f55)) (not (= (f85 f62 ?v0) f55))))))
(assert (let ((?v_0 (f42 f61 (f49 (f50 f51 f52) f53)))) (= (f86 f87 (f63 (f88 f89 (f73 (f74 (f75 f90 ?v_0) f55) (f79 (f80 f81 f91) f92))) (f63 (f69 f70 (f71 f72 ?v_0)) f53))) f93)))
(assert (not (= f48 f55)))
(assert (let ((?v_0 (f42 f61 (f49 (f50 f51 f52) f53)))) (or (and (= (f23 (f54 f55) ?v_0) f1) (= (f23 (f57 ?v_0) f48) f1)) (or (and (= (f23 (f54 ?v_0) f55) f1) (= (f23 (f57 f48) ?v_0) f1)) (= f77 f55)))))
(assert (forall ((?v0 S19)) (=> (= (f26 ?v0 (f27 (f49 (f50 f51 f52) f53))) f1) (not (= ?v0 f55)))))
(assert (forall ((?v0 S19)) (= (= (f23 (f54 f91) ?v0) f1) (= (f23 (f57 f55) ?v0) f1))))
(assert (forall ((?v0 S19) (?v1 S19) (?v2 S19)) (let ((?v_0 (f73 (f74 (f75 f76 ?v1) ?v2) f92))) (= (f46 (f71 f72 ?v0) ?v_0) ?v_0))))
(assert (forall ((?v0 S19) (?v1 S19) (?v2 S19)) (let ((?v_0 (f73 (f74 (f75 f90 ?v1) ?v2) f92))) (= (f46 (f71 f72 ?v0) ?v_0) ?v_0))))
(assert (forall ((?v0 S18)) (= (= (f42 f61 ?v0) f55) (= (f26 f55 (f27 ?v0)) f1))))
(assert (forall ((?v0 S19) (?v1 S18)) (= (f42 f61 (f79 (f80 f81 ?v0) ?v1)) (f58 (f59 f60 ?v0) (f42 f61 ?v1)))))
(assert (= (f42 f61 f92) f91))
(assert (forall ((?v0 S7)) (let ((?v_0 (f42 f61 (f49 (f50 f51 f52) ?v0)))) (= (f63 f94 ?v0) (f63 (f88 f89 (f73 (f74 (f75 f90 ?v_0) f55) (f79 (f80 f81 f91) f92))) (f63 (f69 f70 (f71 f72 ?v_0)) ?v0))))))
(assert (forall ((?v0 S19) (?v1 S19)) (=> (not (= ?v0 f55)) (=> (not (= ?v1 f55)) (= (f23 (f57 f55) (f58 (f59 f60 ?v0) ?v1)) f1)))))
(assert (forall ((?v0 S19) (?v1 S19)) (= (f23 (f54 f55) (f58 (f59 f60 ?v0) ?v1)) f1)))
(assert (forall ((?v0 S19) (?v1 S19)) (let ((?v_0 (f54 f55))) (=> (= (f23 ?v_0 ?v0) f1) (=> (= (f23 ?v_0 ?v1) f1) (= (f23 ?v_0 (f58 (f59 f60 ?v0) ?v1)) f1))))))
(assert (forall ((?v0 S6) (?v1 S7)) (= (= (f63 (f64 f65 ?v0) ?v1) f95) (forall ((?v2 S8)) (=> (= (f11 ?v2 (f12 ?v1)) f1) (not (= (f8 ?v0 ?v2) f1)))))))
(assert (forall ((?v0 S17) (?v1 S18)) (= (= (f79 (f96 f97 ?v0) ?v1) f92) (forall ((?v2 S19)) (=> (= (f26 ?v2 (f27 ?v1)) f1) (not (= (f23 ?v0 ?v2) f1)))))))
(assert (forall ((?v0 S14) (?v1 S15)) (= (= (f98 (f99 f100 ?v0) ?v1) f101) (forall ((?v2 S11)) (=> (= (f21 ?v2 (f22 ?v1)) f1) (not (= (f18 ?v0 ?v2) f1)))))))
(assert (forall ((?v0 S10) (?v1 S11)) (= (= (f102 (f103 f104 ?v0) ?v1) f105) (forall ((?v2 S12)) (=> (= (f16 ?v2 (f17 ?v1)) f1) (not (= (f13 ?v0 ?v2) f1)))))))
(assert (forall ((?v0 S2) (?v1 S3)) (= (= (f106 (f107 f108 ?v0) ?v1) f93) (forall ((?v2 S4)) (=> (= (f6 ?v2 (f7 ?v1)) f1) (not (= (f3 ?v0 ?v2) f1)))))))
(assert (= (f23 (f57 f55) f91) f1))
(assert (forall ((?v0 S12) (?v1 S11) (?v2 S12) (?v3 S11)) (= (= (f102 (f109 f110 ?v0) ?v1) (f102 (f109 f110 ?v2) ?v3)) (and (= ?v0 ?v2) (= ?v1 ?v3)))))
(assert (forall ((?v0 S11) (?v1 S15) (?v2 S11) (?v3 S15)) (= (= (f98 (f111 f112 ?v0) ?v1) (f98 (f111 f112 ?v2) ?v3)) (and (= ?v0 ?v2) (= ?v1 ?v3)))))
(assert (forall ((?v0 S8) (?v1 S7) (?v2 S8) (?v3 S7)) (= (= (f63 (f88 f89 ?v0) ?v1) (f63 (f88 f89 ?v2) ?v3)) (and (= ?v0 ?v2) (= ?v1 ?v3)))))
(assert (forall ((?v0 S19) (?v1 S18) (?v2 S19) (?v3 S18)) (= (= (f79 (f80 f81 ?v0) ?v1) (f79 (f80 f81 ?v2) ?v3)) (and (= ?v0 ?v2) (= ?v1 ?v3)))))
(assert (forall ((?v0 S4) (?v1 S3) (?v2 S4) (?v3 S3)) (= (= (f106 (f113 f114 ?v0) ?v1) (f106 (f113 f114 ?v2) ?v3)) (and (= ?v0 ?v2) (= ?v1 ?v3)))))
(assert (forall ((?v0 S12) (?v1 S11)) (not (= (f102 (f109 f110 ?v0) ?v1) ?v1))))
(assert (forall ((?v0 S11) (?v1 S15)) (not (= (f98 (f111 f112 ?v0) ?v1) ?v1))))
(assert (forall ((?v0 S8) (?v1 S7)) (not (= (f63 (f88 f89 ?v0) ?v1) ?v1))))
(assert (forall ((?v0 S19) (?v1 S18)) (not (= (f79 (f80 f81 ?v0) ?v1) ?v1))))
(assert (forall ((?v0 S4) (?v1 S3)) (not (= (f106 (f113 f114 ?v0) ?v1) ?v1))))
(assert (forall ((?v0 S11) (?v1 S12)) (not (= ?v0 (f102 (f109 f110 ?v1) ?v0)))))
(assert (forall ((?v0 S15) (?v1 S11)) (not (= ?v0 (f98 (f111 f112 ?v1) ?v0)))))
(assert (forall ((?v0 S7) (?v1 S8)) (not (= ?v0 (f63 (f88 f89 ?v1) ?v0)))))
(assert (forall ((?v0 S18) (?v1 S19)) (not (= ?v0 (f79 (f80 f81 ?v1) ?v0)))))
(assert (forall ((?v0 S3) (?v1 S4)) (not (= ?v0 (f106 (f113 f114 ?v1) ?v0)))))
(assert (forall ((?v0 S19) (?v1 S19)) (=> (= (f23 (f54 ?v0) ?v1) f1) (=> (= (f23 (f54 ?v1) ?v0) f1) (= ?v0 ?v1)))))
(assert (forall ((?v0 S19) (?v1 S19) (?v2 S19)) (let ((?v_0 (f54 ?v0))) (=> (= (f23 ?v_0 ?v1) f1) (=> (= (f23 (f54 ?v1) ?v2) f1) (= (f23 ?v_0 ?v2) f1))))))
(assert (forall ((?v0 S19) (?v1 S19)) (or (= (f23 (f54 ?v0) ?v1) f1) (= (f23 (f54 ?v1) ?v0) f1))))
(assert (forall ((?v0 S19)) (= (f23 (f54 ?v0) ?v0) f1)))
(assert (forall ((?v0 S19) (?v1 S19)) (or (= (f23 (f57 ?v0) ?v1) f1) (or (= ?v0 ?v1) (= (f23 (f57 ?v1) ?v0) f1)))))
(assert (forall ((?v0 S19) (?v1 S19) (?v2 S19)) (let ((?v_0 (f59 f60 ?v0))) (= (f58 (f59 f60 (f58 ?v_0 ?v1)) ?v2) (f58 ?v_0 (f58 (f59 f60 ?v1) ?v2))))))
(assert (forall ((?v0 S19) (?v1 S19) (?v2 S19)) (let ((?v_1 (f59 f60 ?v0)) (?v_0 (f59 f60 ?v1))) (= (f58 ?v_1 (f58 ?v_0 ?v2)) (f58 ?v_0 (f58 ?v_1 ?v2))))))
(assert (forall ((?v0 S19) (?v1 S19)) (= (f58 (f59 f60 ?v0) ?v1) (f58 (f59 f60 ?v1) ?v0))))
(assert (forall ((?v0 S19) (?v1 S19) (?v2 S18) (?v3 S19) (?v4 S19) (?v5 S18)) (= (= (f73 (f74 (f75 f90 ?v0) ?v1) ?v2) (f73 (f74 (f75 f90 ?v3) ?v4) ?v5)) (and (= ?v0 ?v3) (and (= ?v1 ?v4) (= ?v2 ?v5))))))
(assert (forall ((?v0 S19) (?v1 S19) (?v2 S18) (?v3 S19) (?v4 S19) (?v5 S18)) (= (= (f73 (f74 (f75 f76 ?v0) ?v1) ?v2) (f73 (f74 (f75 f76 ?v3) ?v4) ?v5)) (and (= ?v0 ?v3) (and (= ?v1 ?v4) (= ?v2 ?v5))))))
(assert (forall ((?v0 S7)) (= (f63 (f69 f70 f47) ?v0) ?v0)))
(assert (forall ((?v0 S6) (?v1 S6) (?v2 S7)) (= (f63 (f64 f65 ?v0) (f63 (f64 f65 ?v1) ?v2)) (f63 (f64 f65 (f30 (f31 ?v0) ?v1)) ?v2))))
(assert (forall ((?v0 S2) (?v1 S2) (?v2 S3)) (= (f106 (f107 f108 ?v0) (f106 (f107 f108 ?v1) ?v2)) (f106 (f107 f108 (f28 (f29 ?v0) ?v1)) ?v2))))
(assert (forall ((?v0 S10) (?v1 S10) (?v2 S11)) (= (f102 (f103 f104 ?v0) (f102 (f103 f104 ?v1) ?v2)) (f102 (f103 f104 (f32 (f33 ?v0) ?v1)) ?v2))))
(assert (forall ((?v0 S14) (?v1 S14) (?v2 S15)) (= (f98 (f99 f100 ?v0) (f98 (f99 f100 ?v1) ?v2)) (f98 (f99 f100 (f34 (f35 ?v0) ?v1)) ?v2))))
(assert (forall ((?v0 S17) (?v1 S17) (?v2 S18)) (= (f79 (f96 f97 ?v0) (f79 (f96 f97 ?v1) ?v2)) (f79 (f96 f97 (f36 (f37 ?v0) ?v1)) ?v2))))
(assert (forall ((?v0 S8) (?v1 S8) (?v2 S7)) (=> (= (f11 ?v0 (f12 (f63 (f88 f89 ?v1) ?v2))) f1) (or (= ?v0 ?v1) (= (f11 ?v0 (f12 ?v2)) f1)))))
(assert (forall ((?v0 S19) (?v1 S19) (?v2 S18)) (=> (= (f26 ?v0 (f27 (f79 (f80 f81 ?v1) ?v2))) f1) (or (= ?v0 ?v1) (= (f26 ?v0 (f27 ?v2)) f1)))))
(assert (forall ((?v0 S12) (?v1 S12) (?v2 S11)) (=> (= (f16 ?v0 (f17 (f102 (f109 f110 ?v1) ?v2))) f1) (or (= ?v0 ?v1) (= (f16 ?v0 (f17 ?v2)) f1)))))
(assert (forall ((?v0 S11) (?v1 S11) (?v2 S15)) (=> (= (f21 ?v0 (f22 (f98 (f111 f112 ?v1) ?v2))) f1) (or (= ?v0 ?v1) (= (f21 ?v0 (f22 ?v2)) f1)))))
(assert (forall ((?v0 S4) (?v1 S4) (?v2 S3)) (=> (= (f6 ?v0 (f7 (f106 (f113 f114 ?v1) ?v2))) f1) (or (= ?v0 ?v1) (= (f6 ?v0 (f7 ?v2)) f1)))))
(assert (forall ((?v0 S11) (?v1 S15)) (not (= (f98 (f111 f112 ?v0) ?v1) f101))))
(assert (forall ((?v0 S12) (?v1 S11)) (not (= (f102 (f109 f110 ?v0) ?v1) f105))))
(assert (forall ((?v0 S4) (?v1 S3)) (not (= (f106 (f113 f114 ?v0) ?v1) f93))))
(assert (forall ((?v0 S19) (?v1 S18)) (not (= (f79 (f80 f81 ?v0) ?v1) f92))))
(assert (forall ((?v0 S8) (?v1 S7)) (not (= (f63 (f88 f89 ?v0) ?v1) f95))))
(assert (forall ((?v0 S11) (?v1 S15)) (not (= f101 (f98 (f111 f112 ?v0) ?v1)))))
(assert (forall ((?v0 S12) (?v1 S11)) (not (= f105 (f102 (f109 f110 ?v0) ?v1)))))
(assert (forall ((?v0 S4) (?v1 S3)) (not (= f93 (f106 (f113 f114 ?v0) ?v1)))))
(assert (forall ((?v0 S19) (?v1 S18)) (not (= f92 (f79 (f80 f81 ?v0) ?v1)))))
(assert (forall ((?v0 S8) (?v1 S7)) (not (= f95 (f63 (f88 f89 ?v0) ?v1)))))
(assert (not (= f55 f91)))
(assert (forall ((?v0 S19) (?v1 S19)) (= (= (f23 (f57 ?v0) ?v1) f1) (and (= (f23 (f54 ?v0) ?v1) f1) (not (= ?v0 ?v1))))))
(assert (forall ((?v0 S31) (?v1 S8) (?v2 S7)) (let ((?v_0 (f69 f70 ?v0))) (= (f63 ?v_0 (f63 (f88 f89 ?v1) ?v2)) (f63 (f88 f89 (f46 ?v0 ?v1)) (f63 ?v_0 ?v2))))))
(assert (forall ((?v0 S34) (?v1 S8) (?v2 S7)) (let ((?v_0 (f50 f51 ?v0))) (= (f49 ?v_0 (f63 (f88 f89 ?v1) ?v2)) (f79 (f80 f81 (f85 ?v0 ?v1)) (f49 ?v_0 ?v2))))))
(assert (forall ((?v0 S60) (?v1 S4) (?v2 S3)) (let ((?v_0 (f116 f117 ?v0))) (= (f115 ?v_0 (f106 (f113 f114 ?v1) ?v2)) (f102 (f109 f110 (f118 ?v0 ?v1)) (f115 ?v_0 ?v2))))))
(assert (forall ((?v0 S63) (?v1 S4) (?v2 S3)) (let ((?v_0 (f120 f121 ?v0))) (= (f119 ?v_0 (f106 (f113 f114 ?v1) ?v2)) (f98 (f111 f112 (f122 ?v0 ?v1)) (f119 ?v_0 ?v2))))))
(assert (forall ((?v0 S66) (?v1 S4) (?v2 S3)) (let ((?v_0 (f124 f125 ?v0))) (= (f123 ?v_0 (f106 (f113 f114 ?v1) ?v2)) (f63 (f88 f89 (f126 ?v0 ?v1)) (f123 ?v_0 ?v2))))))
(assert (forall ((?v0 S69) (?v1 S4) (?v2 S3)) (let ((?v_0 (f128 f129 ?v0))) (= (f127 ?v_0 (f106 (f113 f114 ?v1) ?v2)) (f79 (f80 f81 (f130 ?v0 ?v1)) (f127 ?v_0 ?v2))))))
(assert (forall ((?v0 S72) (?v1 S12) (?v2 S11)) (let ((?v_0 (f132 f133 ?v0))) (= (f131 ?v_0 (f102 (f109 f110 ?v1) ?v2)) (f106 (f113 f114 (f134 ?v0 ?v1)) (f131 ?v_0 ?v2))))))
(assert (forall ((?v0 S75) (?v1 S11) (?v2 S15)) (let ((?v_0 (f136 f137 ?v0))) (= (f135 ?v_0 (f98 (f111 f112 ?v1) ?v2)) (f106 (f113 f114 (f138 ?v0 ?v1)) (f135 ?v_0 ?v2))))))
(assert (forall ((?v0 S78) (?v1 S8) (?v2 S7)) (let ((?v_0 (f139 f140 ?v0))) (= (f86 ?v_0 (f63 (f88 f89 ?v1) ?v2)) (f106 (f113 f114 (f141 ?v0 ?v1)) (f86 ?v_0 ?v2))))))
(assert (forall ((?v0 S80) (?v1 S19) (?v2 S18)) (let ((?v_0 (f143 f144 ?v0))) (= (f142 ?v_0 (f79 (f80 f81 ?v1) ?v2)) (f106 (f113 f114 (f145 ?v0 ?v1)) (f142 ?v_0 ?v2))))))
(assert (forall ((?v0 S83) (?v1 S8) (?v2 S7)) (let ((?v_0 (f147 f148 ?v0))) (= (f146 ?v_0 (f63 (f88 f89 ?v1) ?v2)) (f102 (f109 f110 (f149 ?v0 ?v1)) (f146 ?v_0 ?v2))))))
(assert (forall ((?v0 S86) (?v1 S8) (?v2 S7)) (let ((?v_0 (f151 f152 ?v0))) (= (f150 ?v_0 (f63 (f88 f89 ?v1) ?v2)) (f98 (f111 f112 (f153 ?v0 ?v1)) (f150 ?v_0 ?v2))))))
(assert (forall ((?v0 S89) (?v1 S19) (?v2 S18)) (let ((?v_0 (f155 f156 ?v0))) (= (f154 ?v_0 (f79 (f80 f81 ?v1) ?v2)) (f63 (f88 f89 (f157 ?v0 ?v1)) (f154 ?v_0 ?v2))))))
(assert (forall ((?v0 S92) (?v1 S12) (?v2 S11)) (let ((?v_0 (f159 f160 ?v0))) (= (f158 ?v_0 (f102 (f109 f110 ?v1) ?v2)) (f63 (f88 f89 (f161 ?v0 ?v1)) (f158 ?v_0 ?v2))))))
(assert (forall ((?v0 S95) (?v1 S11) (?v2 S15)) (let ((?v_0 (f163 f164 ?v0))) (= (f162 ?v_0 (f98 (f111 f112 ?v1) ?v2)) (f63 (f88 f89 (f165 ?v0 ?v1)) (f162 ?v_0 ?v2))))))
(assert (forall ((?v0 S31) (?v1 S7) (?v2 S31)) (= (= (f63 (f69 f70 ?v0) ?v1) (f63 (f69 f70 ?v2) ?v1)) (forall ((?v3 S8)) (=> (= (f11 ?v3 (f12 ?v1)) f1) (= (f46 ?v0 ?v3) (f46 ?v2 ?v3)))))))
(assert (forall ((?v0 S34) (?v1 S7) (?v2 S34)) (= (= (f49 (f50 f51 ?v0) ?v1) (f49 (f50 f51 ?v2) ?v1)) (forall ((?v3 S8)) (=> (= (f11 ?v3 (f12 ?v1)) f1) (= (f85 ?v0 ?v3) (f85 ?v2 ?v3)))))))
(assert (forall ((?v0 S78) (?v1 S7) (?v2 S78)) (= (= (f86 (f139 f140 ?v0) ?v1) (f86 (f139 f140 ?v2) ?v1)) (forall ((?v3 S8)) (=> (= (f11 ?v3 (f12 ?v1)) f1) (= (f141 ?v0 ?v3) (f141 ?v2 ?v3)))))))
(assert (forall ((?v0 S83) (?v1 S7) (?v2 S83)) (= (= (f146 (f147 f148 ?v0) ?v1) (f146 (f147 f148 ?v2) ?v1)) (forall ((?v3 S8)) (=> (= (f11 ?v3 (f12 ?v1)) f1) (= (f149 ?v0 ?v3) (f149 ?v2 ?v3)))))))
(assert (forall ((?v0 S86) (?v1 S7) (?v2 S86)) (= (= (f150 (f151 f152 ?v0) ?v1) (f150 (f151 f152 ?v2) ?v1)) (forall ((?v3 S8)) (=> (= (f11 ?v3 (f12 ?v1)) f1) (= (f153 ?v0 ?v3) (f153 ?v2 ?v3)))))))
(assert (forall ((?v0 S89) (?v1 S18) (?v2 S89)) (= (= (f154 (f155 f156 ?v0) ?v1) (f154 (f155 f156 ?v2) ?v1)) (forall ((?v3 S19)) (=> (= (f26 ?v3 (f27 ?v1)) f1) (= (f157 ?v0 ?v3) (f157 ?v2 ?v3)))))))
(assert (forall ((?v0 S80) (?v1 S18) (?v2 S80)) (= (= (f142 (f143 f144 ?v0) ?v1) (f142 (f143 f144 ?v2) ?v1)) (forall ((?v3 S19)) (=> (= (f26 ?v3 (f27 ?v1)) f1) (= (f145 ?v0 ?v3) (f145 ?v2 ?v3)))))))
(assert (forall ((?v0 S66) (?v1 S3) (?v2 S66)) (= (= (f123 (f124 f125 ?v0) ?v1) (f123 (f124 f125 ?v2) ?v1)) (forall ((?v3 S4)) (=> (= (f6 ?v3 (f7 ?v1)) f1) (= (f126 ?v0 ?v3) (f126 ?v2 ?v3)))))))
(assert (forall ((?v0 S69) (?v1 S3) (?v2 S69)) (= (= (f127 (f128 f129 ?v0) ?v1) (f127 (f128 f129 ?v2) ?v1)) (forall ((?v3 S4)) (=> (= (f6 ?v3 (f7 ?v1)) f1) (= (f130 ?v0 ?v3) (f130 ?v2 ?v3)))))))
(assert (forall ((?v0 S63) (?v1 S3) (?v2 S63)) (= (= (f119 (f120 f121 ?v0) ?v1) (f119 (f120 f121 ?v2) ?v1)) (forall ((?v3 S4)) (=> (= (f6 ?v3 (f7 ?v1)) f1) (= (f122 ?v0 ?v3) (f122 ?v2 ?v3)))))))
(assert (forall ((?v0 S60) (?v1 S3) (?v2 S60)) (= (= (f115 (f116 f117 ?v0) ?v1) (f115 (f116 f117 ?v2) ?v1)) (forall ((?v3 S4)) (=> (= (f6 ?v3 (f7 ?v1)) f1) (= (f118 ?v0 ?v3) (f118 ?v2 ?v3)))))))
(assert (forall ((?v0 S95) (?v1 S15) (?v2 S95)) (= (= (f162 (f163 f164 ?v0) ?v1) (f162 (f163 f164 ?v2) ?v1)) (forall ((?v3 S11)) (=> (= (f21 ?v3 (f22 ?v1)) f1) (= (f165 ?v0 ?v3) (f165 ?v2 ?v3)))))))
(assert (forall ((?v0 S75) (?v1 S15) (?v2 S75)) (= (= (f135 (f136 f137 ?v0) ?v1) (f135 (f136 f137 ?v2) ?v1)) (forall ((?v3 S11)) (=> (= (f21 ?v3 (f22 ?v1)) f1) (= (f138 ?v0 ?v3) (f138 ?v2 ?v3)))))))
(assert (forall ((?v0 S92) (?v1 S11) (?v2 S92)) (= (= (f158 (f159 f160 ?v0) ?v1) (f158 (f159 f160 ?v2) ?v1)) (forall ((?v3 S12)) (=> (= (f16 ?v3 (f17 ?v1)) f1) (= (f161 ?v0 ?v3) (f161 ?v2 ?v3)))))))
(assert (forall ((?v0 S72) (?v1 S11) (?v2 S72)) (= (= (f131 (f132 f133 ?v0) ?v1) (f131 (f132 f133 ?v2) ?v1)) (forall ((?v3 S12)) (=> (= (f16 ?v3 (f17 ?v1)) f1) (= (f134 ?v0 ?v3) (f134 ?v2 ?v3)))))))
(assert (forall ((?v0 S31) (?v1 S7)) (= (= (f63 (f69 f70 ?v0) ?v1) f95) (= ?v1 f95))))
(assert (forall ((?v0 S34) (?v1 S7)) (= (= (f49 (f50 f51 ?v0) ?v1) f92) (= ?v1 f95))))
(assert (forall ((?v0 S95) (?v1 S15)) (= (= (f162 (f163 f164 ?v0) ?v1) f95) (= ?v1 f101))))
(assert (forall ((?v0 S92) (?v1 S11)) (= (= (f158 (f159 f160 ?v0) ?v1) f95) (= ?v1 f105))))
(assert (forall ((?v0 S66) (?v1 S3)) (= (= (f123 (f124 f125 ?v0) ?v1) f95) (= ?v1 f93))))
(assert (forall ((?v0 S89) (?v1 S18)) (= (= (f154 (f155 f156 ?v0) ?v1) f95) (= ?v1 f92))))
(assert (forall ((?v0 S86) (?v1 S7)) (= (= (f150 (f151 f152 ?v0) ?v1) f101) (= ?v1 f95))))
(assert (forall ((?v0 S83) (?v1 S7)) (= (= (f146 (f147 f148 ?v0) ?v1) f105) (= ?v1 f95))))
(assert (forall ((?v0 S78) (?v1 S7)) (= (= (f86 (f139 f140 ?v0) ?v1) f93) (= ?v1 f95))))
(assert (forall ((?v0 S80) (?v1 S18)) (= (= (f142 (f143 f144 ?v0) ?v1) f93) (= ?v1 f92))))
(assert (forall ((?v0 S75) (?v1 S15)) (= (= (f135 (f136 f137 ?v0) ?v1) f93) (= ?v1 f101))))
(assert (forall ((?v0 S72) (?v1 S11)) (= (= (f131 (f132 f133 ?v0) ?v1) f93) (= ?v1 f105))))
(assert (forall ((?v0 S69) (?v1 S3)) (= (= (f127 (f128 f129 ?v0) ?v1) f92) (= ?v1 f93))))
(assert (forall ((?v0 S63) (?v1 S3)) (= (= (f119 (f120 f121 ?v0) ?v1) f101) (= ?v1 f93))))
(assert (forall ((?v0 S60) (?v1 S3)) (= (= (f115 (f116 f117 ?v0) ?v1) f105) (= ?v1 f93))))
(assert (forall ((?v0 S31)) (= (f63 (f69 f70 ?v0) f95) f95)))
(assert (forall ((?v0 S34)) (= (f49 (f50 f51 ?v0) f95) f92)))
(assert (forall ((?v0 S86)) (= (f150 (f151 f152 ?v0) f95) f101)))
(assert (forall ((?v0 S83)) (= (f146 (f147 f148 ?v0) f95) f105)))
(assert (forall ((?v0 S78)) (= (f86 (f139 f140 ?v0) f95) f93)))
(assert (forall ((?v0 S95)) (= (f162 (f163 f164 ?v0) f101) f95)))
(assert (forall ((?v0 S92)) (= (f158 (f159 f160 ?v0) f105) f95)))
(assert (forall ((?v0 S66)) (= (f123 (f124 f125 ?v0) f93) f95)))
(assert (forall ((?v0 S89)) (= (f154 (f155 f156 ?v0) f92) f95)))
(assert (forall ((?v0 S80)) (= (f142 (f143 f144 ?v0) f92) f93)))
(assert (forall ((?v0 S75)) (= (f135 (f136 f137 ?v0) f101) f93)))
(assert (forall ((?v0 S72)) (= (f131 (f132 f133 ?v0) f105) f93)))
(assert (forall ((?v0 S69)) (= (f127 (f128 f129 ?v0) f93) f92)))
(assert (forall ((?v0 S63)) (= (f119 (f120 f121 ?v0) f93) f101)))
(assert (forall ((?v0 S60)) (= (f115 (f116 f117 ?v0) f93) f105)))
(assert (forall ((?v0 S31) (?v1 S7)) (= (= f95 (f63 (f69 f70 ?v0) ?v1)) (= ?v1 f95))))
(assert (forall ((?v0 S34) (?v1 S7)) (= (= f92 (f49 (f50 f51 ?v0) ?v1)) (= ?v1 f95))))
(assert (forall ((?v0 S95) (?v1 S15)) (= (= f95 (f162 (f163 f164 ?v0) ?v1)) (= ?v1 f101))))
(assert (forall ((?v0 S92) (?v1 S11)) (= (= f95 (f158 (f159 f160 ?v0) ?v1)) (= ?v1 f105))))
(assert (forall ((?v0 S66) (?v1 S3)) (= (= f95 (f123 (f124 f125 ?v0) ?v1)) (= ?v1 f93))))
(assert (forall ((?v0 S89) (?v1 S18)) (= (= f95 (f154 (f155 f156 ?v0) ?v1)) (= ?v1 f92))))
(assert (forall ((?v0 S86) (?v1 S7)) (= (= f101 (f150 (f151 f152 ?v0) ?v1)) (= ?v1 f95))))
(assert (forall ((?v0 S83) (?v1 S7)) (= (= f105 (f146 (f147 f148 ?v0) ?v1)) (= ?v1 f95))))
(assert (forall ((?v0 S78) (?v1 S7)) (= (= f93 (f86 (f139 f140 ?v0) ?v1)) (= ?v1 f95))))
(assert (forall ((?v0 S80) (?v1 S18)) (= (= f93 (f142 (f143 f144 ?v0) ?v1)) (= ?v1 f92))))
(assert (forall ((?v0 S75) (?v1 S15)) (= (= f93 (f135 (f136 f137 ?v0) ?v1)) (= ?v1 f101))))
(assert (forall ((?v0 S72) (?v1 S11)) (= (= f93 (f131 (f132 f133 ?v0) ?v1)) (= ?v1 f105))))
(assert (forall ((?v0 S69) (?v1 S3)) (= (= f92 (f127 (f128 f129 ?v0) ?v1)) (= ?v1 f93))))
(assert (forall ((?v0 S63) (?v1 S3)) (= (= f101 (f119 (f120 f121 ?v0) ?v1)) (= ?v1 f93))))
(assert (forall ((?v0 S60) (?v1 S3)) (= (= f105 (f115 (f116 f117 ?v0) ?v1)) (= ?v1 f93))))
(assert (forall ((?v0 S6) (?v1 S8) (?v2 S7)) (let ((?v_1 (f64 f65 ?v0)) (?v_0 (f88 f89 ?v1))) (let ((?v_2 (f63 ?v_1 ?v2))) (= (f63 ?v_1 (f63 ?v_0 ?v2)) (ite (= (f8 ?v0 ?v1) f1) (f63 ?v_0 ?v_2) ?v_2))))))
(assert (forall ((?v0 S10) (?v1 S12) (?v2 S11)) (let ((?v_1 (f103 f104 ?v0)) (?v_0 (f109 f110 ?v1))) (let ((?v_2 (f102 ?v_1 ?v2))) (= (f102 ?v_1 (f102 ?v_0 ?v2)) (ite (= (f13 ?v0 ?v1) f1) (f102 ?v_0 ?v_2) ?v_2))))))
(assert (forall ((?v0 S14) (?v1 S11) (?v2 S15)) (let ((?v_1 (f99 f100 ?v0)) (?v_0 (f111 f112 ?v1))) (let ((?v_2 (f98 ?v_1 ?v2))) (= (f98 ?v_1 (f98 ?v_0 ?v2)) (ite (= (f18 ?v0 ?v1) f1) (f98 ?v_0 ?v_2) ?v_2))))))
(assert (forall ((?v0 S17) (?v1 S19) (?v2 S18)) (let ((?v_1 (f96 f97 ?v0)) (?v_0 (f80 f81 ?v1))) (let ((?v_2 (f79 ?v_1 ?v2))) (= (f79 ?v_1 (f79 ?v_0 ?v2)) (ite (= (f23 ?v0 ?v1) f1) (f79 ?v_0 ?v_2) ?v_2))))))
(assert (forall ((?v0 S2) (?v1 S4) (?v2 S3)) (let ((?v_1 (f107 f108 ?v0)) (?v_0 (f113 f114 ?v1))) (let ((?v_2 (f106 ?v_1 ?v2))) (= (f106 ?v_1 (f106 ?v_0 ?v2)) (ite (= (f3 ?v0 ?v1) f1) (f106 ?v_0 ?v_2) ?v_2))))))
(assert (forall ((?v0 S6) (?v1 S7)) (= (= (f63 (f64 f65 ?v0) ?v1) ?v1) (forall ((?v2 S8)) (=> (= (f11 ?v2 (f12 ?v1)) f1) (= (f8 ?v0 ?v2) f1))))))
(assert (forall ((?v0 S17) (?v1 S18)) (= (= (f79 (f96 f97 ?v0) ?v1) ?v1) (forall ((?v2 S19)) (=> (= (f26 ?v2 (f27 ?v1)) f1) (= (f23 ?v0 ?v2) f1))))))
(assert (forall ((?v0 S2) (?v1 S3)) (= (= (f106 (f107 f108 ?v0) ?v1) ?v1) (forall ((?v2 S4)) (=> (= (f6 ?v2 (f7 ?v1)) f1) (= (f3 ?v0 ?v2) f1))))))
(assert (forall ((?v0 S14) (?v1 S15)) (= (= (f98 (f99 f100 ?v0) ?v1) ?v1) (forall ((?v2 S11)) (=> (= (f21 ?v2 (f22 ?v1)) f1) (= (f18 ?v0 ?v2) f1))))))
(assert (forall ((?v0 S10) (?v1 S11)) (= (= (f102 (f103 f104 ?v0) ?v1) ?v1) (forall ((?v2 S12)) (=> (= (f16 ?v2 (f17 ?v1)) f1) (= (f13 ?v0 ?v2) f1))))))
(assert (forall ((?v0 S6) (?v1 S7)) (= (f12 (f63 (f64 f65 ?v0) ?v1)) (f166 (f9 (f10 ?v0) ?v1)))))
(assert (forall ((?v0 S17) (?v1 S18)) (= (f27 (f79 (f96 f97 ?v0) ?v1)) (f167 (f24 (f25 ?v0) ?v1)))))
(assert (forall ((?v0 S2) (?v1 S3)) (= (f7 (f106 (f107 f108 ?v0) ?v1)) (f168 (f4 (f5 ?v0) ?v1)))))
(assert (forall ((?v0 S14) (?v1 S15)) (= (f22 (f98 (f99 f100 ?v0) ?v1)) (f169 (f19 (f20 ?v0) ?v1)))))
(assert (forall ((?v0 S10) (?v1 S11)) (= (f17 (f102 (f103 f104 ?v0) ?v1)) (f170 (f14 (f15 ?v0) ?v1)))))
(assert (forall ((?v0 S6)) (= (f63 (f64 f65 ?v0) f95) f95)))
(assert (forall ((?v0 S14)) (= (f98 (f99 f100 ?v0) f101) f101)))
(assert (forall ((?v0 S10)) (= (f102 (f103 f104 ?v0) f105) f105)))
(assert (forall ((?v0 S2)) (= (f106 (f107 f108 ?v0) f93) f93)))
(assert (forall ((?v0 S17)) (= (f79 (f96 f97 ?v0) f92) f92)))
(assert (forall ((?v0 S19) (?v1 S19)) (= (= (f58 (f59 f60 ?v0) ?v1) f55) (or (= ?v0 f55) (= ?v1 f55)))))
(assert (forall ((?v0 S19)) (= (f58 (f59 f60 ?v0) f55) f55)))
(assert (forall ((?v0 S19)) (= (f58 (f59 f60 f55) ?v0) f55)))
(assert (forall ((?v0 S19) (?v1 S19) (?v2 S18)) (= (f85 f62 (f73 (f74 (f75 f90 ?v0) ?v1) ?v2)) ?v0)))
(assert (forall ((?v0 S19) (?v1 S19) (?v2 S18)) (= (f85 f62 (f73 (f74 (f75 f76 ?v0) ?v1) ?v2)) ?v0)))
(assert (forall ((?v0 S19) (?v1 S19) (?v2 S18) (?v3 S19) (?v4 S19) (?v5 S18)) (not (= (f73 (f74 (f75 f76 ?v0) ?v1) ?v2) (f73 (f74 (f75 f90 ?v3) ?v4) ?v5)))))
(assert (forall ((?v0 S19) (?v1 S19) (?v2 S18) (?v3 S19) (?v4 S19) (?v5 S18)) (not (= (f73 (f74 (f75 f90 ?v0) ?v1) ?v2) (f73 (f74 (f75 f76 ?v3) ?v4) ?v5)))))
(assert (forall ((?v0 S27) (?v1 S28) (?v2 S28) (?v3 S19) (?v4 S19) (?v5 S18)) (= (= (f8 (f66 (f67 (f68 ?v0) ?v1) ?v2) (f73 (f74 (f75 f90 ?v3) ?v4) ?v5)) f1) (= (f38 (f39 (f40 ?v1 ?v3) ?v4) ?v5) f1))))
(assert (forall ((?v0 S27) (?v1 S28) (?v2 S28) (?v3 S19) (?v4 S19) (?v5 S18)) (= (= (f8 (f66 (f67 (f68 ?v0) ?v1) ?v2) (f73 (f74 (f75 f76 ?v3) ?v4) ?v5)) f1) (= (f38 (f39 (f40 ?v2 ?v3) ?v4) ?v5) f1))))
(assert (forall ((?v0 S18)) (=> (forall ((?v1 S19)) (=> (= (f26 ?v1 (f27 ?v0)) f1) (not (= ?v1 f55)))) (= (f23 (f57 f55) (f42 f61 ?v0)) f1))))
(assert (forall ((?v0 S18) (?v1 S19)) (=> (forall ((?v2 S19)) (=> (= (f26 ?v2 (f27 ?v0)) f1) (not (= ?v2 f55)))) (=> (= (f26 ?v1 (f27 ?v0)) f1) (= (f23 (f54 ?v1) (f42 f61 ?v0)) f1)))))
(assert (forall ((?v0 S7) (?v1 S6)) (=> (forall ((?v2 S8)) (=> (= (f11 ?v2 (f12 ?v0)) f1) (not (= (f8 ?v1 ?v2) f1)))) (= (f63 (f64 f65 ?v1) ?v0) f95))))
(assert (forall ((?v0 S18) (?v1 S17)) (=> (forall ((?v2 S19)) (=> (= (f26 ?v2 (f27 ?v0)) f1) (not (= (f23 ?v1 ?v2) f1)))) (= (f79 (f96 f97 ?v1) ?v0) f92))))
(assert (forall ((?v0 S15) (?v1 S14)) (=> (forall ((?v2 S11)) (=> (= (f21 ?v2 (f22 ?v0)) f1) (not (= (f18 ?v1 ?v2) f1)))) (= (f98 (f99 f100 ?v1) ?v0) f101))))
(assert (forall ((?v0 S11) (?v1 S10)) (=> (forall ((?v2 S12)) (=> (= (f16 ?v2 (f17 ?v0)) f1) (not (= (f13 ?v1 ?v2) f1)))) (= (f102 (f103 f104 ?v1) ?v0) f105))))
(assert (forall ((?v0 S3) (?v1 S2)) (=> (forall ((?v2 S4)) (=> (= (f6 ?v2 (f7 ?v0)) f1) (not (= (f3 ?v1 ?v2) f1)))) (= (f106 (f107 f108 ?v1) ?v0) f93))))
(assert (forall ((?v0 S7) (?v1 S8)) (=> (forall ((?v2 S8)) (=> (= (f11 ?v2 (f12 ?v0)) f1) (not (= (f85 f62 ?v2) f55)))) (=> (forall ((?v2 S8)) (=> (= (f11 ?v2 (f12 ?v0)) f1) (not (= (f85 f52 ?v2) f55)))) (=> (= (f11 ?v1 (f12 (f63 f94 ?v0))) f1) (not (= (f85 f62 ?v1) f55)))))))
(assert (= (f23 (f54 f55) f91) f1))
(assert (= (f23 (f57 f55) f91) f1))
(assert (not (= (f23 (f57 f91) f55) f1)))
(assert (= (f23 (f54 f55) f91) f1))
(assert (not (= (f23 (f54 f91) f55) f1)))
(assert (forall ((?v0 S19) (?v1 S19) (?v2 S18)) (= (f85 f52 (f73 (f74 (f75 f76 ?v0) ?v1) ?v2)) (f42 (f171 (f172 f173 f55) f44) ?v2))))
(assert (forall ((?v0 S7) (?v1 S8)) (= (f174 (f12 ?v0) (f12 (f63 (f88 f89 ?v1) ?v0))) f1)))
(assert (forall ((?v0 S18) (?v1 S19)) (= (f175 (f27 ?v0) (f27 (f79 (f80 f81 ?v1) ?v0))) f1)))
(assert (forall ((?v0 S11) (?v1 S12)) (= (f176 (f17 ?v0) (f17 (f102 (f109 f110 ?v1) ?v0))) f1)))
(assert (forall ((?v0 S15) (?v1 S11)) (= (f177 (f22 ?v0) (f22 (f98 (f111 f112 ?v1) ?v0))) f1)))
(assert (forall ((?v0 S3) (?v1 S4)) (= (f178 (f7 ?v0) (f7 (f106 (f113 f114 ?v1) ?v0))) f1)))
(assert (forall ((?v0 S6) (?v1 S7)) (= (f174 (f12 (f63 (f64 f65 ?v0) ?v1)) (f12 ?v1)) f1)))
(assert (forall ((?v0 S17) (?v1 S18)) (= (f175 (f27 (f79 (f96 f97 ?v0) ?v1)) (f27 ?v1)) f1)))
(assert (forall ((?v0 S2) (?v1 S3)) (= (f178 (f7 (f106 (f107 f108 ?v0) ?v1)) (f7 ?v1)) f1)))
(assert (forall ((?v0 S14) (?v1 S15)) (= (f177 (f22 (f98 (f99 f100 ?v0) ?v1)) (f22 ?v1)) f1)))
(assert (forall ((?v0 S10) (?v1 S11)) (= (f176 (f17 (f102 (f103 f104 ?v0) ?v1)) (f17 ?v1)) f1)))
(check-sat)
(exit)
